p cnf 50 50
-36 32 -13 0
-29 -12 45 0
21 50 -10 0
4 -40 -49 0
-40 22 18 0
-24 15 16 0
-13 33 -2 0
35 28 -7 0
37 -17 -20 0
13 -42 -21 0
-43 31 -27 0
-37 -50 -36 0
-10 -17 -5 0
27 50 26 0
19 -44 22 0
-26 -9 -4 0
41 46 22 0
-42 -13 11 0
-49 -35 43 0
34 21 -16 0
-19 48 40 0
-9 46 19 0
-25 4 28 0
-19 29 18 0
19 -12 -49 0
-41 -39 -17 0
8 -43 -29 0
-36 -21 -44 0
1 -43 -4 0
-36 -45 17 0
41 -2 -7 0
26 -47 29 0
46 4 -26 0
-8 -23 25 0
-8 12 -35 0
-23 -21 -16 0
-37 18 38 0
13 -21 31 0
-24 45 48 0
43 -44 -32 0
46 33 25 0
20 34 -23 0
44 -11 28 0
46 13 44 0
-39 -29 6 0
-5 -18 17 0
11 43 8 0
32 17 -24 0
1 -18 -44 0
1 -2 45 0
